\ENCODING=ISO-8859-1
\Problem name: ilog.cplex

Maximize
 obj: 1898 x(0)#0 + 440 x(1)#1 + 22507 x(2)#2 + 270 x(3)#3 + 14148 x(4)#4
      + 3100 x(5)#5 + 4650 x(6)#6 + 30800 x(7)#7 + 615 x(8)#8 + 4975 x(9)#9
      + 1160 x(10)#10 + 4225 x(11)#11 + 510 x(12)#12 + 11880 x(13)#13
      + 479 x(14)#14 + 440 x(15)#15 + 490 x(16)#16 + 330 x(17)#17
      + 110 x(18)#18 + 560 x(19)#19 + 24355 x(20)#20 + 2885 x(21)#21
      + 11748 x(22)#22 + 4550 x(23)#23 + 750 x(24)#24 + 3720 x(25)#25
      + 1950 x(26)#26 + 10500 x(27)#27
Subject To
 c1: 45 x(0)#0 + 85 x(2)#2 + 150 x(3)#3 + 65 x(4)#4 + 95 x(5)#5 + 30 x(6)#6
     + 170 x(8)#8 + 40 x(10)#10 + 25 x(11)#11 + 20 x(12)#12 + 25 x(15)#15
     + 25 x(18)#18 + 165 x(20)#20 + 85 x(22)#22 + 100 x(27)#27 <= 562
 c2: 30 x(0)#0 + 20 x(1)#1 + 125 x(2)#2 + 5 x(3)#3 + 80 x(4)#4 + 25 x(5)#5
     + 35 x(6)#6 + 73 x(7)#7 + 12 x(8)#8 + 15 x(9)#9 + 15 x(10)#10
     + 40 x(11)#11 + 5 x(12)#12 + 10 x(13)#13 + 10 x(14)#14 + 12 x(15)#15
     + 10 x(16)#16 + 9 x(17)#17 + 20 x(19)#19 + 60 x(20)#20 + 40 x(21)#21
     + 50 x(22)#22 + 36 x(23)#23 + 49 x(24)#24 + 40 x(25)#25 + 19 x(26)#26
     + 150 x(27)#27 <= 497
Bounds
 0 <= x(0)#0 <= 1
 0 <= x(1)#1 <= 1
 0 <= x(2)#2 <= 1
 0 <= x(3)#3 <= 1
 0 <= x(4)#4 <= 1
 0 <= x(5)#5 <= 1
 0 <= x(6)#6 <= 1
 0 <= x(7)#7 <= 1
 0 <= x(8)#8 <= 1
 0 <= x(9)#9 <= 1
 0 <= x(10)#10 <= 1
 0 <= x(11)#11 <= 1
 0 <= x(12)#12 <= 1
 0 <= x(13)#13 <= 1
 0 <= x(14)#14 <= 1
 0 <= x(15)#15 <= 1
 0 <= x(16)#16 <= 1
 0 <= x(17)#17 <= 1
 0 <= x(18)#18 <= 1
 0 <= x(19)#19 <= 1
 0 <= x(20)#20 <= 1
 0 <= x(21)#21 <= 1
 0 <= x(22)#22 <= 1
 0 <= x(23)#23 <= 1
 0 <= x(24)#24 <= 1
 0 <= x(25)#25 <= 1
 0 <= x(26)#26 <= 1
 0 <= x(27)#27 <= 1
Generals
 x(0)#0  x(1)#1  x(2)#2  x(3)#3  x(4)#4  x(5)#5  x(6)#6  x(7)#7  x(8)#8 
 x(9)#9  x(10)#10  x(11)#11  x(12)#12  x(13)#13  x(14)#14  x(15)#15  x(16)#16 
 x(17)#17  x(18)#18  x(19)#19  x(20)#20  x(21)#21  x(22)#22  x(23)#23 
 x(24)#24  x(25)#25  x(26)#26  x(27)#27 
End
